p ocr 40 40 120
27 71
37 48
3 80
8 76
9 50
3 43
21 79
38 74
14 49
39 57
22 50
33 80
17 63
8 60
19 69
29 46
23 60
32 63
15 56
12 48
5 64
5 73
34 54
17 47
2 67
36 78
14 78
6 46
18 48
31 54
13 70
13 79
34 56
40 44
20 75
36 71
4 42
21 58
4 51
35 66
22 75
39 45
34 58
37 75
2 53
31 68
18 80
31 77
19 57
24 47
30 63
3 79
32 78
37 77
40 48
17 71
32 53
15 64
36 41
2 48
20 63
36 59
28 76
19 52
11 78
4 57
11 62
40 52
15 59
28 44
37 56
35 68
25 45
34 57
12 54
26 53
26 62
39 47
10 75
7 60
15 43
6 61
26 46
4 73
1 65
6 79
40 47
16 56
33 72
24 48
15 45
32 61
29 47
8 79
37 69
26 48
3 46
17 45
6 72
9 71
16 49
25 61
22 53
5 46
14 79
1 42
1 51
10 63
16 42
22 55
13 52
7 66
27 78
28 52
35 76
11 54
13 73
18 69
30 43
7 50
